language Essence 1.3

letting pain be
        [[(2, tuple (5), (7, 3), [4, 5; int(1, 2)]),
          (2, tuple (5), (7, 3), [4, 5; int(1, 2)]); int(1, 2)],
         [(2, tuple (5), (7, 3), [4, 5; int(1, 2)]),
          (2, tuple (5), (7, 3), [4, 5; int(1, 2)]); int(1, 2)]; int(1, 2)]
